param numCities=3;

param TransportCost: 1 2 3:=
    1   999		1   	500		
    2   5		999		5		
	3   5		5		999;
	


param VaccineAmount:=
	1   5
	2   14
	3   75;
	
param VaccineDemand:=
	1   6
	2   17
	3   40;	
	
param VaccinePrice:=
	1   100
	2   110
	3   130;
	
param Budget:=
	1   3000
	2   3000
	3   4000;